3 16 1 10
14 7 17 12 15 19 8 2 15 9 3 11 7 13 9 7 
14.04 13.46 2.46 7.95 14.08 11.26 12.78 10.86 15.55 9.97 5.88 15.96 3.28 2.55 3.85 13.11 
8 8 8 8 8 8 8 8 8 8 8 8 8 8 8 8 
13.25 4.84 15.44 1.69 11.18 4.58 7.72 11.42 4.59 3.81 13.34 11.16 13.95 0.41 1.47 14.86 
1 1 1 1 1 1 1 1 1 1 1 1 1 1 1 1 
1 1 1 1 1 1 1 1 1 1 1 1 1 1 1 1 
1 1 1 1 1 1 1 1 1 1 1 1 1 1 1 1 
0.01 0.01 0.01 0.01 0.01 0.01 0.01 0.01 0.01 0.01 0.01 0.01 0.01 0.01 0.01 0.01 
0.02 0.02 0.02 0.02 0.02 0.02 0.02 0.02 0.02 0.02 0.02 0.02 0.02 0.02 0.02 0.02 
1 1 1 1 1 1 1 1 1 1 1 1 1 1 1 1 
